(set-logic ALL)
(declare-const n_VAR Int)
(assert (< 1 (div n_VAR 3)))
(assert (not (= (- (* 2 n_VAR) 2) 0)))
(assert (not (= (* (- (- n_VAR 1) (div (- (* n_VAR n_VAR) (* 2 n_VAR)) (- (* 2 n_VAR) 2))) (- (- n_VAR 1) (div (- (* n_VAR n_VAR) (* 2 n_VAR)) (- (* 2 n_VAR) 2)))) (+ 1 (* (div (- (* n_VAR n_VAR) (* 2 n_VAR)) (- (* 2 n_VAR) 2)) (div (- (* n_VAR n_VAR) (* 2 n_VAR)) (- (* 2 n_VAR) 2)))))))
(assert (< 2 (div n_VAR 3)))
(assert (not (= (- (* 2 n_VAR) 4) 0)))
(assert (not (= (* (- (- n_VAR 2) (div (- (* n_VAR n_VAR) (* 4 n_VAR)) (- (* 2 n_VAR) 4))) (- (- n_VAR 2) (div (- (* n_VAR n_VAR) (* 4 n_VAR)) (- (* 2 n_VAR) 4)))) (+ 4 (* (div (- (* n_VAR n_VAR) (* 4 n_VAR)) (- (* 2 n_VAR) 4)) (div (- (* n_VAR n_VAR) (* 4 n_VAR)) (- (* 2 n_VAR) 4)))))))
(assert (< 3 (div n_VAR 3)))
(assert (not (= (- (* 2 n_VAR) 6) 0)))
(assert (not (= (* (- (- n_VAR 3) (div (- (* n_VAR n_VAR) (* 6 n_VAR)) (- (* 2 n_VAR) 6))) (- (- n_VAR 3) (div (- (* n_VAR n_VAR) (* 6 n_VAR)) (- (* 2 n_VAR) 6)))) (+ 9 (* (div (- (* n_VAR n_VAR) (* 6 n_VAR)) (- (* 2 n_VAR) 6)) (div (- (* n_VAR n_VAR) (* 6 n_VAR)) (- (* 2 n_VAR) 6)))))))
(assert (< 4 (div n_VAR 3)))
(assert (not (= (- (* 2 n_VAR) 8) 0)))
(assert (= (* (- (- n_VAR 4) (div (- (* n_VAR n_VAR) (* 8 n_VAR)) (- (* 2 n_VAR) 8))) (- (- n_VAR 4) (div (- (* n_VAR n_VAR) (* 8 n_VAR)) (- (* 2 n_VAR) 8)))) (+ 16 (* (div (- (* n_VAR n_VAR) (* 8 n_VAR)) (- (* 2 n_VAR) 8)) (div (- (* n_VAR n_VAR) (* 8 n_VAR)) (- (* 2 n_VAR) 8))))))
(check-sat)
(get-value (n_VAR))
